(declare-const |__VERIFIER_assert__cond___15':154:169:174:554:563| Int)
(declare-const |__VERIFIER_assert__cond___16':155:168:173:553:562| Int)
(declare-const havoc Int)
(declare-const |main__cp':152:170:175:555:564| Int)
(declare-const |K:165:166:171:551:560| Int)
(declare-const __VERIFIER_assert__cond___15 Int)
(declare-const __VERIFIER_assert__cond___16 Int)
(declare-const main____CPAchecker_TMP_1 Int)
(declare-const |havoc:12:62:258:557:566| Int)
(declare-const |havoc:1| Int)
(declare-const |phi_main____CPAchecker_TMP_1:256:257:556:565| Int)
(declare-const |havoc:21:63:259:558:567| Int)
(declare-const |havoc:2| Int)
(declare-const |havoc:9:61:176:559| Int)
(declare-const |main____CPAchecker_TMP_1':153:167:172:552:561| Int)
(assert (and (<= (+ havoc -1000000) 0) (<= (+ (- havoc) -1000000) 0)
               (<= (+ |havoc:1| -1000000) 0)
               (<= (+ (- |havoc:1|) -1000000) 0)
               (<= (+ |havoc:2| -1000000) 0)
               (<= (+ (- |havoc:2|) -1000000) 0) (< (- havoc) 0)
               (< (- |havoc:1|) 0) (<= (- |havoc:2|) 0) (not (= |havoc:2| 0))
               (<= (+ |havoc:2| (- havoc) 1) 0)
               (not (= (ite (< (+ |havoc:2| (- havoc) -1) 0) 1 0) 0))
               (not (= (ite (<= (+ (- |havoc:2|) 1) 0) 1 0) 0))
               (not (= |havoc:9:61:176:559| 0))
               (not (= (ite (< (+ |havoc:2| (- havoc)) 0) 1 0) 0))
               (not (= (ite (<= (- |havoc:2|) 0) 1 0) 0))
               (or (not (and (<= (- |K:165:166:171:551:560|) 0)
                               (<= |K:165:166:171:551:560| 0)))
                     (= (+ (- main____CPAchecker_TMP_1)
                             |main____CPAchecker_TMP_1':153:167:172:552:561|) 0))
               (or (not (<= (+ (- |K:165:166:171:551:560|) 1) 0))
                     (= |main____CPAchecker_TMP_1':153:167:172:552:561| 0))
               (or (not (and (<= (- |K:165:166:171:551:560|) 0)
                               (<= |K:165:166:171:551:560| 0)))
                     (= (+ (- __VERIFIER_assert__cond___16)
                             |__VERIFIER_assert__cond___16':155:168:173:553:562|) 0))
               (or (not (<= (+ (- |K:165:166:171:551:560|) 1) 0))
                     (= (+ |__VERIFIER_assert__cond___16':155:168:173:553:562|
                             -1) 0))
               (or (not (and (<= (- |K:165:166:171:551:560|) 0)
                               (<= |K:165:166:171:551:560| 0)))
                     (= (+ (- __VERIFIER_assert__cond___15)
                             |__VERIFIER_assert__cond___15':154:169:174:554:563|) 0))
               (or (not (<= (+ (- |K:165:166:171:551:560|) 1) 0))
                     (= (+ |__VERIFIER_assert__cond___15':154:169:174:554:563|
                             -1) 0))
               (or (not (<= (- |K:165:166:171:551:560|) 0))
                     (= (+ |main__cp':152:170:175:555:564|
                             (- |K:165:166:171:551:560|) (- |havoc:2|)) 0))
               (or (and (= |K:165:166:171:551:560| 0)
                          (= (+ __VERIFIER_assert__cond___16
                                  (- |__VERIFIER_assert__cond___16':155:168:173:553:562|)) 0)
                          (= (+ __VERIFIER_assert__cond___15
                                  (- |__VERIFIER_assert__cond___15':154:169:174:554:563|)) 0)
                          (= (+ main____CPAchecker_TMP_1
                                  (- |main____CPAchecker_TMP_1':153:167:172:552:561|)) 0)
                          (= (+ (- |main__cp':152:170:175:555:564|) |havoc:2|) 0))
                     (and (<= (+ (- |K:165:166:171:551:560|) 1) 0)
                            (<= (+ |havoc:2| (- havoc) 2) 0)
                            (<= (+ (- |havoc:2|) 1) 0)
                            (= (+ |__VERIFIER_assert__cond___16':155:168:173:553:562|
                                    -1) 0)
                            (= (+ |__VERIFIER_assert__cond___15':154:169:174:554:563|
                                    -1) 0)
                            (= |main____CPAchecker_TMP_1':153:167:172:552:561| 0)
                            (<= (+ |main__cp':152:170:175:555:564| (- 
                                     havoc) 1) 0)
                            (<= (+ (- |main__cp':152:170:175:555:564|) 2) 0)))
               (<= (- |K:165:166:171:551:560|) 0) (< (- havoc) 0)
               (< (- |main__cp':152:170:175:555:564|) 0)
               (or (and (<= (+ (- |main__cp':152:170:175:555:564|) havoc -1) 0)
                          (<= (+ |main__cp':152:170:175:555:564| (- havoc) 1) 0)
                          (= (+ (- |phi_main____CPAchecker_TMP_1:256:257:556:565|)
                                  |main____CPAchecker_TMP_1':153:167:172:552:561|) 0))
                     (and (or (< (+ |main__cp':152:170:175:555:564| (- 
                                      havoc) 1) 0)
                                (< (+ (- |main__cp':152:170:175:555:564|)
                                        havoc -1) 0))
                            (not (= |havoc:12:62:258:557:566| 0))
                            (= (+ |havoc:12:62:258:557:566|
                                    (- |phi_main____CPAchecker_TMP_1:256:257:556:565|)) 0)))
               (not (= (ite (< (+ |main__cp':152:170:175:555:564| (- havoc)) 0)
                            1 0) 0))
               (not (= (ite (<= (- |main__cp':152:170:175:555:564|) 0) 1 0) 0))
               (not (= (+ |main__cp':152:170:175:555:564| (- havoc) 1) 0))
               (not (= (ite (< (+ |main__cp':152:170:175:555:564| (- havoc) 1) 0)
                            1 0) 0))
               (not (= (ite (<= (+ (- |main__cp':152:170:175:555:564|) -1) 0)
                            1 0) 0))
               (not (= (+ |main__cp':152:170:175:555:564| (- havoc) 2) 0))
               (not (= |havoc:21:63:259:558:567| 0))
               (= (ite (< (+ |main__cp':152:170:175:555:564| (- havoc) 1) 0)
                       1 0) 0)))
(check-sat)
